NAME: line_30_0
TYPE: TSP
COMMENT: line_30_0
DIMENSION: 30
EDGE_WEIGHT_TYPE: EUC_2D
NODE_COORD_SECTION
1 0.0 22.0
2 0.0 127.0
3 0.0 287.0
4 0.0 279.0
5 0.0 269.0
6 0.0 269.0
7 0.0 197.0
8 0.0 178.0
9 0.0 133.0
10 0.0 14.0
11 0.0 250.0
12 0.0 280.0
13 0.0 5.0
14 0.0 150.0
15 0.0 257.0
16 0.0 206.0
17 0.0 41.0
18 0.0 24.0
19 0.0 116.0
20 0.0 178.0
21 0.0 289.0
22 0.0 205.0
23 0.0 261.0
24 0.0 252.0
25 0.0 151.0
26 0.0 88.0
27 0.0 142.0
28 0.0 237.0
29 0.0 254.0
30 0.0 277.0
